benchmarks/results/libra6.txt
NAME: libra6.txt
COMMENT : 6 locations based on the Libra Constelation
TYPE: txt
DIMENSION: 6
LAST_RUN: 5
HORIZONTAL_SECTION
x: 3, 4, 5
TIME_SECTION
dfj: 10, 20, 40
mtz: 12, 18, 35
dfj2: 10, 19, 37
dl: 1, 5, 12
gg: 2, 10, 12
default: 1, 3, 4
ERROR_SECTION
x: 3, 4, 5
dfj: 0, 0, 0.001
mtz: 0, 0, 0.009
dfj2: 0, 0, 0.005
dl: 0, 0, 0.0004
gg: 0, 0, 0.002
default: 0, 0, 0.004
