data/raw/libra6.tsp
NAME: libra6.tsp
COMMENT : 6 locations based on the Libra Constelation
TYPE: TSP
DIMENSION: 6
EDGE_WEIGHT_TYPE: EUC_2D
NODE_COORD_SECTION
1 267 92
2 288 152
3 281 469
4 395 594
5 542 427
6 451 170
